p edge 113 3593
e 1 3
e 1 4
e 1 9
e 1 11
e 1 12
e 1 13
e 1 14
e 1 15
e 1 16
e 1 17
e 1 18
e 1 19
e 1 20
e 1 23
e 1 24
e 1 26
e 1 28
e 1 29
e 1 33
e 1 34
e 1 35
e 1 36
e 1 37
e 1 38
e 1 40
e 1 42
e 1 43
e 1 44
e 1 47
e 1 48
e 1 49
e 1 51
e 1 52
e 1 53
e 1 57
e 1 59
e 1 60
e 1 62
e 1 63
e 1 64
e 1 65
e 1 66
e 1 68
e 1 71
e 1 72
e 1 73
e 1 77
e 1 78
e 1 80
e 1 82
e 1 83
e 1 84
e 1 85
e 1 87
e 1 90
e 1 91
e 1 93
e 1 94
e 1 95
e 1 97
e 1 100
e 1 104
e 1 105
e 1 106
e 1 107
e 1 108
e 1 109
e 1 110
e 1 112
e 1 113
e 2 3
e 2 4
e 2 5
e 2 6
e 2 8
e 2 10
e 2 12
e 2 15
e 2 16
e 2 17
e 2 25
e 2 27
e 2 29
e 2 30
e 2 31
e 2 32
e 2 33
e 2 37
e 2 39
e 2 45
e 2 46
e 2 55
e 2 56
e 2 57
e 2 58
e 2 59
e 2 60
e 2 61
e 2 62
e 2 65
e 2 66
e 2 67
e 2 68
e 2 69
e 2 70
e 2 71
e 2 73
e 2 75
e 2 76
e 2 77
e 2 78
e 2 79
e 2 81
e 2 82
e 2 83
e 2 84
e 2 85
e 2 86
e 2 87
e 2 89
e 2 91
e 2 93
e 2 97
e 2 100
e 2 101
e 2 102
e 2 105
e 2 107
e 2 111
e 2 112
e 3 4
e 3 5
e 3 11
e 3 12
e 3 13
e 3 16
e 3 18
e 3 21
e 3 23
e 3 24
e 3 25
e 3 26
e 3 27
e 3 28
e 3 29
e 3 31
e 3 33
e 3 34
e 3 35
e 3 36
e 3 37
e 3 39
e 3 43
e 3 44
e 3 45
e 3 46
e 3 47
e 3 48
e 3 49
e 3 51
e 3 54
e 3 56
e 3 60
e 3 61
e 3 62
e 3 63
e 3 64
e 3 65
e 3 67
e 3 68
e 3 69
e 3 72
e 3 74
e 3 77
e 3 79
e 3 80
e 3 82
e 3 86
e 3 88
e 3 89
e 3 91
e 3 92
e 3 95
e 3 96
e 3 102
e 3 105
e 3 110
e 3 111
e 3 112
e 3 113
e 4 5
e 4 9
e 4 11
e 4 12
e 4 14
e 4 15
e 4 17
e 4 18
e 4 21
e 4 25
e 4 26
e 4 28
e 4 29
e 4 32
e 4 34
e 4 36
e 4 37
e 4 38
e 4 42
e 4 46
e 4 50
e 4 51
e 4 52
e 4 53
e 4 54
e 4 55
e 4 56
e 4 57
e 4 58
e 4 61
e 4 62
e 4 64
e 4 66
e 4 67
e 4 68
e 4 69
e 4 70
e 4 71
e 4 72
e 4 75
e 4 76
e 4 77
e 4 78
e 4 80
e 4 81
e 4 82
e 4 85
e 4 88
e 4 90
e 4 91
e 4 92
e 4 97
e 4 98
e 4 99
e 4 100
e 4 105
e 4 106
e 4 107
e 4 109
e 4 111
e 5 7
e 5 9
e 5 10
e 5 13
e 5 16
e 5 18
e 5 19
e 5 20
e 5 24
e 5 25
e 5 27
e 5 30
e 5 32
e 5 35
e 5 36
e 5 37
e 5 38
e 5 39
e 5 44
e 5 45
e 5 47
e 5 48
e 5 49
e 5 51
e 5 53
e 5 54
e 5 58
e 5 61
e 5 62
e 5 63
e 5 64
e 5 65
e 5 66
e 5 68
e 5 69
e 5 70
e 5 71
e 5 74
e 5 75
e 5 77
e 5 78
e 5 80
e 5 81
e 5 82
e 5 86
e 5 87
e 5 88
e 5 90
e 5 96
e 5 97
e 5 98
e 5 99
e 5 101
e 5 102
e 5 104
e 5 107
e 6 7
e 6 8
e 6 12
e 6 13
e 6 14
e 6 16
e 6 17
e 6 19
e 6 20
e 6 21
e 6 22
e 6 24
e 6 25
e 6 26
e 6 28
e 6 34
e 6 35
e 6 36
e 6 37
e 6 39
e 6 40
e 6 44
e 6 45
e 6 46
e 6 49
e 6 50
e 6 52
e 6 53
e 6 58
e 6 59
e 6 62
e 6 63
e 6 65
e 6 66
e 6 67
e 6 68
e 6 69
e 6 70
e 6 71
e 6 72
e 6 73
e 6 74
e 6 77
e 6 79
e 6 80
e 6 81
e 6 83
e 6 84
e 6 85
e 6 87
e 6 89
e 6 92
e 6 95
e 6 96
e 6 97
e 6 98
e 6 99
e 6 100
e 6 105
e 6 107
e 6 109
e 6 111
e 6 112
e 7 8
e 7 9
e 7 10
e 7 13
e 7 15
e 7 16
e 7 17
e 7 20
e 7 21
e 7 24
e 7 25
e 7 26
e 7 27
e 7 28
e 7 29
e 7 30
e 7 32
e 7 33
e 7 34
e 7 35
e 7 36
e 7 37
e 7 38
e 7 39
e 7 40
e 7 41
e 7 42
e 7 43
e 7 44
e 7 45
e 7 46
e 7 47
e 7 49
e 7 50
e 7 51
e 7 54
e 7 55
e 7 56
e 7 58
e 7 59
e 7 60
e 7 62
e 7 63
e 7 64
e 7 66
e 7 67
e 7 68
e 7 70
e 7 72
e 7 73
e 7 74
e 7 77
e 7 81
e 7 82
e 7 84
e 7 88
e 7 89
e 7 90
e 7 91
e 7 95
e 7 98
e 7 100
e 7 101
e 7 102
e 7 105
e 7 107
e 7 109
e 7 110
e 7 111
e 7 112
e 7 113
e 8 9
e 8 11
e 8 14
e 8 15
e 8 18
e 8 19
e 8 23
e 8 25
e 8 26
e 8 31
e 8 32
e 8 34
e 8 35
e 8 36
e 8 38
e 8 41
e 8 44
e 8 46
e 8 48
e 8 49
e 8 50
e 8 52
e 8 54
e 8 56
e 8 58
e 8 59
e 8 63
e 8 64
e 8 65
e 8 66
e 8 69
e 8 70
e 8 71
e 8 74
e 8 75
e 8 79
e 8 81
e 8 83
e 8 85
e 8 86
e 8 88
e 8 91
e 8 93
e 8 94
e 8 97
e 8 99
e 8 100
e 8 101
e 8 102
e 8 104
e 8 106
e 8 107
e 8 109
e 8 113
e 9 10
e 9 12
e 9 13
e 9 14
e 9 15
e 9 18
e 9 19
e 9 20
e 9 23
e 9 24
e 9 25
e 9 26
e 9 27
e 9 30
e 9 31
e 9 33
e 9 34
e 9 35
e 9 38
e 9 41
e 9 42
e 9 43
e 9 44
e 9 45
e 9 46
e 9 48
e 9 49
e 9 50
e 9 52
e 9 54
e 9 55
e 9 57
e 9 58
e 9 59
e 9 60
e 9 62
e 9 63
e 9 64
e 9 66
e 9 67
e 9 69
e 9 71
e 9 72
e 9 76
e 9 77
e 9 78
e 9 79
e 9 80
e 9 81
e 9 82
e 9 84
e 9 86
e 9 88
e 9 89
e 9 90
e 9 93
e 9 94
e 9 95
e 9 101
e 9 102
e 9 103
e 9 105
e 9 106
e 9 108
e 9 110
e 9 113
e 10 13
e 10 15
e 10 17
e 10 19
e 10 21
e 10 22
e 10 24
e 10 26
e 10 27
e 10 28
e 10 29
e 10 30
e 10 32
e 10 34
e 10 35
e 10 38
e 10 42
e 10 45
e 10 46
e 10 52
e 10 53
e 10 55
e 10 56
e 10 58
e 10 59
e 10 60
e 10 63
e 10 64
e 10 65
e 10 66
e 10 69
e 10 70
e 10 72
e 10 75
e 10 79
e 10 86
e 10 88
e 10 90
e 10 91
e 10 93
e 10 94
e 10 95
e 10 96
e 10 98
e 10 100
e 10 102
e 10 103
e 10 105
e 10 107
e 10 108
e 10 110
e 10 112
e 11 13
e 11 15
e 11 19
e 11 22
e 11 24
e 11 28
e 11 29
e 11 30
e 11 31
e 11 33
e 11 35
e 11 37
e 11 38
e 11 41
e 11 42
e 11 43
e 11 44
e 11 49
e 11 50
e 11 51
e 11 52
e 11 53
e 11 56
e 11 58
e 11 59
e 11 60
e 11 62
e 11 65
e 11 68
e 11 69
e 11 70
e 11 72
e 11 73
e 11 76
e 11 77
e 11 79
e 11 82
e 11 83
e 11 84
e 11 85
e 11 86
e 11 87
e 11 88
e 11 90
e 11 91
e 11 92
e 11 93
e 11 95
e 11 96
e 11 100
e 11 102
e 11 104
e 11 105
e 11 108
e 11 110
e 11 113
e 12 15
e 12 17
e 12 18
e 12 19
e 12 23
e 12 25
e 12 28
e 12 29
e 12 30
e 12 31
e 12 32
e 12 34
e 12 42
e 12 44
e 12 46
e 12 47
e 12 51
e 12 54
e 12 55
e 12 57
e 12 60
e 12 61
e 12 64
e 12 66
e 12 68
e 12 69
e 12 73
e 12 74
e 12 75
e 12 76
e 12 78
e 12 80
e 12 82
e 12 83
e 12 87
e 12 88
e 12 89
e 12 93
e 12 96
e 12 97
e 12 99
e 12 101
e 12 102
e 12 103
e 12 105
e 12 107
e 12 110
e 12 111
e 12 112
e 13 14
e 13 18
e 13 19
e 13 21
e 13 24
e 13 25
e 13 26
e 13 28
e 13 30
e 13 33
e 13 34
e 13 36
e 13 39
e 13 40
e 13 41
e 13 46
e 13 47
e 13 49
e 13 50
e 13 51
e 13 53
e 13 54
e 13 57
e 13 58
e 13 59
e 13 60
e 13 62
e 13 63
e 13 65
e 13 67
e 13 68
e 13 69
e 13 70
e 13 73
e 13 74
e 13 76
e 13 77
e 13 79
e 13 83
e 13 84
e 13 85
e 13 86
e 13 87
e 13 88
e 13 89
e 13 90
e 13 92
e 13 93
e 13 95
e 13 96
e 13 97
e 13 98
e 13 99
e 13 100
e 13 102
e 13 103
e 13 105
e 13 106
e 13 107
e 13 108
e 13 109
e 13 110
e 13 111
e 13 113
e 14 15
e 14 16
e 14 20
e 14 21
e 14 22
e 14 24
e 14 26
e 14 27
e 14 29
e 14 30
e 14 33
e 14 34
e 14 37
e 14 39
e 14 40
e 14 42
e 14 43
e 14 45
e 14 46
e 14 47
e 14 49
e 14 50
e 14 52
e 14 53
e 14 56
e 14 58
e 14 62
e 14 63
e 14 64
e 14 67
e 14 69
e 14 71
e 14 72
e 14 75
e 14 76
e 14 80
e 14 81
e 14 82
e 14 83
e 14 89
e 14 90
e 14 91
e 14 92
e 14 94
e 14 95
e 14 96
e 14 97
e 14 98
e 14 99
e 14 101
e 14 102
e 14 103
e 14 106
e 14 108
e 14 109
e 14 111
e 15 16
e 15 17
e 15 18
e 15 21
e 15 24
e 15 25
e 15 26
e 15 27
e 15 28
e 15 29
e 15 30
e 15 31
e 15 32
e 15 34
e 15 36
e 15 37
e 15 40
e 15 41
e 15 44
e 15 45
e 15 47
e 15 48
e 15 51
e 15 53
e 15 54
e 15 57
e 15 58
e 15 59
e 15 62
e 15 63
e 15 66
e 15 67
e 15 68
e 15 69
e 15 72
e 15 75
e 15 76
e 15 77
e 15 81
e 15 82
e 15 83
e 15 84
e 15 85
e 15 86
e 15 87
e 15 89
e 15 91
e 15 94
e 15 95
e 15 96
e 15 99
e 15 102
e 15 103
e 15 104
e 15 106
e 15 107
e 15 109
e 15 111
e 15 112
e 16 20
e 16 22
e 16 24
e 16 25
e 16 26
e 16 31
e 16 32
e 16 34
e 16 36
e 16 39
e 16 40
e 16 43
e 16 45
e 16 47
e 16 49
e 16 52
e 16 54
e 16 55
e 16 56
e 16 57
e 16 58
e 16 61
e 16 64
e 16 66
e 16 68
e 16 69
e 16 73
e 16 74
e 16 75
e 16 76
e 16 80
e 16 83
e 16 84
e 16 85
e 16 86
e 16 87
e 16 89
e 16 90
e 16 93
e 16 94
e 16 95
e 16 97
e 16 100
e 16 101
e 16 102
e 16 106
e 16 108
e 16 109
e 16 110
e 16 111
e 16 113
e 17 19
e 17 22
e 17 23
e 17 24
e 17 26
e 17 33
e 17 35
e 17 36
e 17 38
e 17 40
e 17 41
e 17 42
e 17 46
e 17 47
e 17 48
e 17 49
e 17 50
e 17 52
e 17 53
e 17 55
e 17 57
e 17 59
e 17 62
e 17 63
e 17 69
e 17 75
e 17 77
e 17 80
e 17 81
e 17 82
e 17 83
e 17 88
e 17 89
e 17 90
e 17 91
e 17 92
e 17 93
e 17 94
e 17 96
e 17 97
e 17 98
e 17 99
e 17 104
e 17 106
e 17 111
e 17 113
e 18 19
e 18 20
e 18 21
e 18 22
e 18 23
e 18 24
e 18 26
e 18 27
e 18 28
e 18 30
e 18 31
e 18 32
e 18 33
e 18 34
e 18 37
e 18 38
e 18 39
e 18 40
e 18 42
e 18 43
e 18 44
e 18 45
e 18 46
e 18 47
e 18 49
e 18 50
e 18 51
e 18 52
e 18 53
e 18 54
e 18 55
e 18 56
e 18 57
e 18 61
e 18 62
e 18 63
e 18 64
e 18 66
e 18 69
e 18 70
e 18 71
e 18 72
e 18 73
e 18 75
e 18 76
e 18 78
e 18 79
e 18 83
e 18 84
e 18 85
e 18 86
e 18 88
e 18 90
e 18 92
e 18 93
e 18 94
e 18 96
e 18 98
e 18 99
e 18 100
e 18 101
e 18 102
e 18 103
e 18 105
e 18 108
e 18 112
e 19 21
e 19 22
e 19 23
e 19 24
e 19 27
e 19 29
e 19 31
e 19 32
e 19 33
e 19 35
e 19 37
e 19 39
e 19 40
e 19 43
e 19 45
e 19 49
e 19 53
e 19 54
e 19 55
e 19 60
e 19 63
e 19 65
e 19 66
e 19 67
e 19 68
e 19 69
e 19 70
e 19 71
e 19 72
e 19 75
e 19 78
e 19 80
e 19 81
e 19 82
e 19 84
e 19 86
e 19 91
e 19 92
e 19 94
e 19 95
e 19 97
e 19 98
e 19 101
e 19 102
e 19 105
e 19 108
e 19 111
e 19 112
e 20 22
e 20 24
e 20 26
e 20 27
e 20 28
e 20 36
e 20 38
e 20 39
e 20 40
e 20 41
e 20 42
e 20 43
e 20 46
e 20 47
e 20 48
e 20 49
e 20 50
e 20 53
e 20 54
e 20 55
e 20 58
e 20 59
e 20 61
e 20 63
e 20 64
e 20 65
e 20 67
e 20 68
e 20 72
e 20 74
e 20 75
e 20 77
e 20 78
e 20 79
e 20 82
e 20 83
e 20 85
e 20 86
e 20 87
e 20 89
e 20 90
e 20 91
e 20 92
e 20 93
e 20 95
e 20 98
e 20 99
e 20 102
e 20 104
e 20 105
e 20 106
e 20 108
e 20 109
e 20 110
e 20 111
e 20 113
e 21 23
e 21 25
e 21 26
e 21 28
e 21 29
e 21 30
e 21 32
e 21 35
e 21 36
e 21 37
e 21 38
e 21 43
e 21 45
e 21 46
e 21 47
e 21 48
e 21 49
e 21 53
e 21 54
e 21 55
e 21 60
e 21 61
e 21 63
e 21 64
e 21 65
e 21 66
e 21 68
e 21 69
e 21 70
e 21 72
e 21 73
e 21 74
e 21 75
e 21 78
e 21 80
e 21 84
e 21 85
e 21 87
e 21 88
e 21 90
e 21 91
e 21 92
e 21 93
e 21 95
e 21 96
e 21 99
e 21 100
e 21 102
e 21 103
e 21 106
e 21 107
e 21 108
e 21 110
e 21 111
e 21 112
e 22 23
e 22 24
e 22 25
e 22 26
e 22 28
e 22 29
e 22 32
e 22 33
e 22 35
e 22 36
e 22 37
e 22 40
e 22 41
e 22 42
e 22 43
e 22 44
e 22 47
e 22 48
e 22 50
e 22 51
e 22 53
e 22 54
e 22 58
e 22 61
e 22 62
e 22 67
e 22 69
e 22 70
e 22 71
e 22 73
e 22 77
e 22 79
e 22 82
e 22 83
e 22 84
e 22 86
e 22 87
e 22 88
e 22 89
e 22 90
e 22 91
e 22 92
e 22 93
e 22 95
e 22 100
e 22 102
e 22 104
e 22 105
e 22 107
e 22 109
e 22 110
e 22 113
e 23 28
e 23 34
e 23 38
e 23 40
e 23 42
e 23 45
e 23 47
e 23 48
e 23 49
e 23 50
e 23 51
e 23 52
e 23 53
e 23 55
e 23 57
e 23 59
e 23 62
e 23 63
e 23 64
e 23 65
e 23 67
e 23 68
e 23 70
e 23 72
e 23 74
e 23 75
e 23 76
e 23 79
e 23 81
e 23 82
e 23 84
e 23 85
e 23 88
e 23 90
e 23 91
e 23 92
e 23 94
e 23 95
e 23 97
e 23 100
e 23 101
e 23 102
e 23 103
e 23 105
e 23 106
e 23 107
e 23 108
e 23 109
e 23 111
e 24 25
e 24 26
e 24 27
e 24 29
e 24 30
e 24 31
e 24 32
e 24 34
e 24 36
e 24 38
e 24 40
e 24 42
e 24 44
e 24 45
e 24 46
e 24 47
e 24 48
e 24 49
e 24 50
e 24 51
e 24 54
e 24 55
e 24 56
e 24 58
e 24 59
e 24 61
e 24 64
e 24 65
e 24 66
e 24 67
e 24 71
e 24 72
e 24 74
e 24 78
e 24 79
e 24 80
e 24 81
e 24 83
e 24 86
e 24 88
e 24 89
e 24 90
e 24 91
e 24 96
e 24 97
e 24 98
e 24 101
e 24 102
e 24 103
e 24 104
e 24 107
e 24 108
e 24 109
e 24 110
e 24 111
e 24 112
e 24 113
e 25 27
e 25 29
e 25 30
e 25 33
e 25 34
e 25 36
e 25 38
e 25 39
e 25 40
e 25 41
e 25 44
e 25 45
e 25 47
e 25 49
e 25 51
e 25 52
e 25 53
e 25 56
e 25 57
e 25 58
e 25 59
e 25 60
e 25 62
e 25 64
e 25 66
e 25 68
e 25 69
e 25 71
e 25 72
e 25 73
e 25 76
e 25 77
e 25 78
e 25 79
e 25 82
e 25 83
e 25 84
e 25 85
e 25 87
e 25 89
e 25 90
e 25 93
e 25 98
e 25 99
e 25 100
e 25 101
e 25 102
e 25 104
e 25 107
e 25 109
e 26 27
e 26 29
e 26 32
e 26 33
e 26 35
e 26 36
e 26 39
e 26 40
e 26 41
e 26 44
e 26 45
e 26 47
e 26 49
e 26 52
e 26 54
e 26 56
e 26 59
e 26 60
e 26 62
e 26 65
e 26 66
e 26 69
e 26 70
e 26 72
e 26 73
e 26 75
e 26 78
e 26 79
e 26 80
e 26 81
e 26 84
e 26 85
e 26 87
e 26 88
e 26 89
e 26 91
e 26 92
e 26 94
e 26 96
e 26 98
e 26 100
e 26 102
e 26 103
e 26 104
e 26 108
e 26 111
e 26 112
e 27 29
e 27 30
e 27 32
e 27 34
e 27 35
e 27 36
e 27 38
e 27 43
e 27 44
e 27 47
e 27 48
e 27 51
e 27 52
e 27 55
e 27 56
e 27 57
e 27 59
e 27 60
e 27 61
e 27 62
e 27 63
e 27 64
e 27 65
e 27 68
e 27 69
e 27 71
e 27 75
e 27 76
e 27 77
e 27 78
e 27 80
e 27 81
e 27 83
e 27 84
e 27 85
e 27 86
e 27 87
e 27 88
e 27 89
e 27 90
e 27 91
e 27 93
e 27 97
e 27 100
e 27 101
e 27 102
e 27 104
e 27 106
e 27 107
e 27 108
e 27 110
e 27 112
e 27 113
e 28 30
e 28 31
e 28 34
e 28 35
e 28 38
e 28 39
e 28 40
e 28 42
e 28 45
e 28 46
e 28 47
e 28 49
e 28 52
e 28 54
e 28 57
e 28 58
e 28 59
e 28 60
e 28 61
e 28 63
e 28 65
e 28 66
e 28 67
e 28 68
e 28 69
e 28 70
e 28 72
e 28 73
e 28 74
e 28 75
e 28 76
e 28 77
e 28 78
e 28 79
e 28 82
e 28 86
e 28 92
e 28 93
e 28 95
e 28 97
e 28 98
e 28 99
e 28 100
e 28 104
e 28 106
e 28 111
e 28 112
e 28 113
e 29 30
e 29 31
e 29 32
e 29 33
e 29 34
e 29 35
e 29 36
e 29 37
e 29 38
e 29 39
e 29 41
e 29 42
e 29 43
e 29 45
e 29 47
e 29 51
e 29 52
e 29 56
e 29 57
e 29 58
e 29 59
e 29 60
e 29 66
e 29 67
e 29 71
e 29 76
e 29 80
e 29 84
e 29 87
e 29 89
e 29 90
e 29 91
e 29 94
e 29 96
e 29 97
e 29 103
e 29 104
e 29 106
e 29 107
e 29 109
e 29 111
e 29 112
e 29 113
e 30 31
e 30 32
e 30 38
e 30 39
e 30 40
e 30 43
e 30 44
e 30 51
e 30 53
e 30 54
e 30 55
e 30 57
e 30 58
e 30 60
e 30 61
e 30 62
e 30 64
e 30 67
e 30 70
e 30 72
e 30 73
e 30 76
e 30 77
e 30 79
e 30 81
e 30 84
e 30 86
e 30 87
e 30 88
e 30 89
e 30 91
e 30 92
e 30 93
e 30 96
e 30 97
e 30 98
e 30 99
e 30 100
e 30 104
e 30 105
e 30 107
e 30 109
e 30 111
e 30 112
e 30 113
e 31 32
e 31 34
e 31 35
e 31 36
e 31 39
e 31 42
e 31 43
e 31 44
e 31 47
e 31 48
e 31 50
e 31 51
e 31 53
e 31 54
e 31 57
e 31 58
e 31 61
e 31 65
e 31 66
e 31 67
e 31 71
e 31 72
e 31 73
e 31 78
e 31 79
e 31 80
e 31 81
e 31 82
e 31 83
e 31 85
e 31 87
e 31 88
e 31 89
e 31 90
e 31 92
e 31 94
e 31 97
e 31 98
e 31 99
e 31 100
e 31 101
e 31 102
e 31 104
e 31 105
e 31 107
e 31 108
e 31 109
e 31 111
e 31 112
e 32 33
e 32 34
e 32 35
e 32 36
e 32 40
e 32 41
e 32 42
e 32 43
e 32 48
e 32 49
e 32 50
e 32 55
e 32 56
e 32 59
e 32 60
e 32 62
e 32 63
e 32 64
e 32 65
e 32 67
e 32 68
e 32 69
e 32 70
e 32 72
e 32 73
e 32 75
e 32 76
e 32 77
e 32 81
e 32 82
e 32 85
e 32 86
e 32 87
e 32 88
e 32 89
e 32 90
e 32 92
e 32 95
e 32 96
e 32 101
e 32 102
e 32 103
e 32 104
e 32 105
e 32 106
e 32 111
e 32 112
e 32 113
e 33 35
e 33 38
e 33 41
e 33 42
e 33 46
e 33 52
e 33 53
e 33 54
e 33 56
e 33 57
e 33 59
e 33 61
e 33 65
e 33 66
e 33 67
e 33 70
e 33 71
e 33 73
e 33 75
e 33 76
e 33 77
e 33 79
e 33 81
e 33 83
e 33 84
e 33 86
e 33 87
e 33 89
e 33 90
e 33 91
e 33 95
e 33 96
e 33 97
e 33 99
e 33 100
e 33 102
e 33 103
e 33 105
e 33 110
e 33 112
e 33 113
e 34 35
e 34 36
e 34 37
e 34 38
e 34 39
e 34 40
e 34 42
e 34 44
e 34 45
e 34 46
e 34 49
e 34 50
e 34 51
e 34 52
e 34 53
e 34 55
e 34 57
e 34 58
e 34 59
e 34 60
e 34 62
e 34 63
e 34 64
e 34 65
e 34 66
e 34 68
e 34 71
e 34 73
e 34 75
e 34 76
e 34 77
e 34 78
e 34 79
e 34 80
e 34 81
e 34 83
e 34 85
e 34 87
e 34 89
e 34 91
e 34 92
e 34 94
e 34 97
e 34 98
e 34 100
e 34 105
e 34 107
e 34 108
e 34 109
e 34 110
e 35 36
e 35 37
e 35 39
e 35 41
e 35 42
e 35 46
e 35 47
e 35 48
e 35 49
e 35 51
e 35 52
e 35 56
e 35 57
e 35 58
e 35 60
e 35 62
e 35 63
e 35 64
e 35 66
e 35 67
e 35 69
e 35 70
e 35 73
e 35 76
e 35 77
e 35 81
e 35 83
e 35 88
e 35 96
e 35 97
e 35 100
e 35 101
e 35 102
e 35 103
e 35 105
e 35 108
e 35 109
e 35 110
e 35 111
e 35 112
e 36 39
e 36 40
e 36 41
e 36 44
e 36 45
e 36 48
e 36 49
e 36 50
e 36 51
e 36 52
e 36 54
e 36 55
e 36 56
e 36 58
e 36 59
e 36 61
e 36 62
e 36 64
e 36 65
e 36 66
e 36 69
e 36 71
e 36 73
e 36 74
e 36 77
e 36 78
e 36 79
e 36 80
e 36 84
e 36 87
e 36 88
e 36 89
e 36 94
e 36 96
e 36 97
e 36 98
e 36 103
e 36 104
e 36 105
e 36 106
e 36 107
e 36 108
e 36 110
e 36 111
e 36 113
e 37 38
e 37 41
e 37 42
e 37 43
e 37 44
e 37 45
e 37 47
e 37 48
e 37 50
e 37 51
e 37 52
e 37 53
e 37 54
e 37 55
e 37 56
e 37 60
e 37 63
e 37 64
e 37 65
e 37 66
e 37 67
e 37 68
e 37 69
e 37 71
e 37 73
e 37 76
e 37 77
e 37 79
e 37 80
e 37 83
e 37 85
e 37 88
e 37 89
e 37 90
e 37 91
e 37 93
e 37 94
e 37 95
e 37 101
e 37 104
e 37 105
e 37 107
e 37 110
e 38 39
e 38 42
e 38 44
e 38 47
e 38 51
e 38 53
e 38 58
e 38 59
e 38 60
e 38 61
e 38 63
e 38 64
e 38 65
e 38 66
e 38 67
e 38 68
e 38 69
e 38 70
e 38 72
e 38 73
e 38 74
e 38 76
e 38 77
e 38 80
e 38 81
e 38 83
e 38 94
e 38 95
e 38 96
e 38 98
e 38 99
e 38 100
e 38 101
e 38 102
e 38 103
e 38 104
e 38 107
e 38 108
e 38 110
e 38 111
e 38 112
e 38 113
e 39 40
e 39 44
e 39 45
e 39 46
e 39 47
e 39 48
e 39 49
e 39 53
e 39 54
e 39 57
e 39 58
e 39 59
e 39 60
e 39 62
e 39 63
e 39 64
e 39 65
e 39 67
e 39 69
e 39 71
e 39 72
e 39 74
e 39 76
e 39 78
e 39 80
e 39 81
e 39 82
e 39 85
e 39 86
e 39 87
e 39 88
e 39 89
e 39 90
e 39 91
e 39 97
e 39 98
e 39 100
e 39 102
e 39 103
e 39 104
e 39 105
e 39 106
e 39 107
e 39 108
e 39 109
e 39 110
e 40 41
e 40 43
e 40 44
e 40 46
e 40 48
e 40 50
e 40 51
e 40 52
e 40 53
e 40 57
e 40 58
e 40 61
e 40 63
e 40 65
e 40 68
e 40 69
e 40 70
e 40 72
e 40 73
e 40 74
e 40 75
e 40 78
e 40 79
e 40 81
e 40 82
e 40 84
e 40 87
e 40 89
e 40 92
e 40 94
e 40 95
e 40 97
e 40 99
e 40 100
e 40 101
e 40 102
e 40 103
e 40 104
e 40 105
e 40 107
e 40 111
e 40 112
e 40 113
e 41 42
e 41 43
e 41 45
e 41 46
e 41 47
e 41 51
e 41 52
e 41 53
e 41 54
e 41 56
e 41 57
e 41 59
e 41 60
e 41 62
e 41 64
e 41 65
e 41 66
e 41 68
e 41 70
e 41 72
e 41 73
e 41 74
e 41 77
e 41 78
e 41 84
e 41 87
e 41 92
e 41 93
e 41 95
e 41 96
e 41 97
e 41 99
e 41 101
e 41 102
e 41 103
e 41 104
e 41 106
e 41 108
e 41 109
e 41 110
e 41 111
e 41 112
e 42 44
e 42 45
e 42 46
e 42 47
e 42 49
e 42 50
e 42 51
e 42 52
e 42 55
e 42 59
e 42 60
e 42 61
e 42 62
e 42 63
e 42 64
e 42 65
e 42 66
e 42 67
e 42 68
e 42 69
e 42 70
e 42 72
e 42 73
e 42 76
e 42 77
e 42 78
e 42 80
e 42 83
e 42 85
e 42 89
e 42 90
e 42 92
e 42 93
e 42 94
e 42 96
e 42 100
e 42 101
e 42 104
e 42 106
e 42 107
e 42 109
e 42 111
e 42 113
e 43 44
e 43 45
e 43 46
e 43 47
e 43 50
e 43 53
e 43 54
e 43 55
e 43 57
e 43 60
e 43 61
e 43 62
e 43 65
e 43 66
e 43 72
e 43 77
e 43 78
e 43 83
e 43 85
e 43 87
e 43 88
e 43 90
e 43 93
e 43 94
e 43 96
e 43 98
e 43 100
e 43 102
e 43 103
e 43 107
e 43 109
e 43 111
e 44 46
e 44 47
e 44 48
e 44 49
e 44 50
e 44 51
e 44 57
e 44 58
e 44 62
e 44 64
e 44 66
e 44 68
e 44 71
e 44 73
e 44 74
e 44 76
e 44 78
e 44 80
e 44 81
e 44 84
e 44 85
e 44 86
e 44 95
e 44 98
e 44 100
e 44 105
e 44 106
e 44 107
e 44 110
e 44 111
e 44 112
e 44 113
e 45 46
e 45 47
e 45 48
e 45 49
e 45 50
e 45 51
e 45 53
e 45 54
e 45 57
e 45 58
e 45 61
e 45 64
e 45 65
e 45 66
e 45 69
e 45 70
e 45 72
e 45 73
e 45 74
e 45 75
e 45 78
e 45 80
e 45 81
e 45 82
e 45 85
e 45 86
e 45 89
e 45 93
e 45 95
e 45 96
e 45 97
e 45 99
e 45 103
e 45 104
e 45 105
e 45 106
e 45 108
e 45 109
e 45 110
e 45 111
e 45 112
e 46 47
e 46 48
e 46 49
e 46 52
e 46 53
e 46 54
e 46 55
e 46 57
e 46 58
e 46 59
e 46 61
e 46 64
e 46 67
e 46 68
e 46 73
e 46 74
e 46 77
e 46 86
e 46 87
e 46 90
e 46 93
e 46 94
e 46 95
e 46 96
e 46 97
e 46 101
e 46 102
e 46 103
e 46 104
e 46 107
e 46 109
e 46 111
e 46 112
e 46 113
e 47 48
e 47 51
e 47 53
e 47 54
e 47 56
e 47 57
e 47 63
e 47 64
e 47 66
e 47 67
e 47 68
e 47 69
e 47 71
e 47 72
e 47 73
e 47 74
e 47 75
e 47 78
e 47 80
e 47 81
e 47 82
e 47 85
e 47 87
e 47 90
e 47 92
e 47 93
e 47 97
e 47 98
e 47 99
e 47 103
e 47 107
e 47 108
e 47 109
e 47 110
e 47 111
e 47 112
e 48 50
e 48 55
e 48 56
e 48 57
e 48 62
e 48 65
e 48 67
e 48 70
e 48 72
e 48 76
e 48 77
e 48 78
e 48 79
e 48 80
e 48 81
e 48 82
e 48 84
e 48 85
e 48 86
e 48 88
e 48 90
e 48 91
e 48 92
e 48 93
e 48 96
e 48 97
e 48 100
e 48 101
e 48 103
e 48 104
e 48 106
e 48 108
e 48 110
e 48 111
e 48 112
e 49 51
e 49 53
e 49 54
e 49 55
e 49 60
e 49 64
e 49 65
e 49 67
e 49 69
e 49 70
e 49 72
e 49 73
e 49 74
e 49 76
e 49 77
e 49 80
e 49 81
e 49 83
e 49 84
e 49 86
e 49 88
e 49 89
e 49 90
e 49 92
e 49 93
e 49 96
e 49 97
e 49 98
e 49 99
e 49 101
e 49 102
e 49 103
e 49 104
e 49 106
e 49 107
e 49 110
e 49 111
e 49 113
e 50 55
e 50 56
e 50 58
e 50 59
e 50 60
e 50 63
e 50 64
e 50 66
e 50 71
e 50 72
e 50 74
e 50 76
e 50 79
e 50 81
e 50 82
e 50 84
e 50 85
e 50 87
e 50 92
e 50 95
e 50 96
e 50 98
e 50 99
e 50 100
e 50 102
e 50 103
e 50 104
e 50 105
e 50 106
e 50 109
e 50 110
e 50 112
e 50 113
e 51 53
e 51 54
e 51 57
e 51 59
e 51 61
e 51 62
e 51 63
e 51 65
e 51 67
e 51 68
e 51 69
e 51 72
e 51 73
e 51 74
e 51 76
e 51 78
e 51 80
e 51 81
e 51 82
e 51 83
e 51 86
e 51 89
e 51 90
e 51 91
e 51 92
e 51 94
e 51 95
e 51 96
e 51 97
e 51 101
e 51 104
e 51 107
e 51 108
e 51 109
e 51 110
e 51 112
e 52 57
e 52 58
e 52 60
e 52 62
e 52 66
e 52 69
e 52 70
e 52 72
e 52 74
e 52 76
e 52 78
e 52 80
e 52 81
e 52 82
e 52 85
e 52 88
e 52 89
e 52 90
e 52 92
e 52 94
e 52 95
e 52 98
e 52 101
e 52 102
e 52 103
e 52 105
e 52 107
e 52 111
e 52 112
e 52 113
e 53 54
e 53 55
e 53 56
e 53 59
e 53 61
e 53 62
e 53 63
e 53 64
e 53 65
e 53 68
e 53 69
e 53 73
e 53 74
e 53 77
e 53 78
e 53 79
e 53 82
e 53 84
e 53 85
e 53 87
e 53 90
e 53 92
e 53 93
e 53 94
e 53 95
e 53 97
e 53 99
e 53 100
e 53 101
e 53 105
e 53 107
e 53 108
e 54 57
e 54 59
e 54 63
e 54 65
e 54 69
e 54 71
e 54 72
e 54 75
e 54 77
e 54 79
e 54 80
e 54 82
e 54 83
e 54 84
e 54 85
e 54 86
e 54 88
e 54 89
e 54 90
e 54 91
e 54 93
e 54 98
e 54 99
e 54 100
e 54 103
e 54 107
e 54 109
e 54 110
e 54 111
e 54 112
e 54 113
e 55 56
e 55 57
e 55 60
e 55 61
e 55 62
e 55 64
e 55 65
e 55 66
e 55 68
e 55 69
e 55 70
e 55 71
e 55 74
e 55 75
e 55 77
e 55 78
e 55 79
e 55 82
e 55 83
e 55 84
e 55 85
e 55 86
e 55 87
e 55 88
e 55 90
e 55 91
e 55 92
e 55 93
e 55 95
e 55 98
e 55 100
e 55 101
e 55 102
e 55 103
e 55 105
e 55 106
e 55 109
e 55 112
e 56 57
e 56 58
e 56 60
e 56 62
e 56 64
e 56 66
e 56 67
e 56 69
e 56 70
e 56 73
e 56 77
e 56 78
e 56 79
e 56 80
e 56 81
e 56 83
e 56 84
e 56 85
e 56 86
e 56 90
e 56 92
e 56 93
e 56 95
e 56 100
e 56 101
e 56 102
e 56 103
e 56 104
e 56 105
e 56 106
e 56 108
e 56 109
e 56 110
e 56 111
e 56 112
e 56 113
e 57 58
e 57 61
e 57 62
e 57 65
e 57 68
e 57 75
e 57 76
e 57 77
e 57 79
e 57 81
e 57 82
e 57 84
e 57 86
e 57 87
e 57 89
e 57 90
e 57 92
e 57 95
e 57 96
e 57 99
e 57 100
e 57 104
e 57 106
e 57 108
e 57 111
e 57 112
e 58 61
e 58 62
e 58 65
e 58 66
e 58 67
e 58 69
e 58 70
e 58 72
e 58 73
e 58 74
e 58 76
e 58 78
e 58 79
e 58 80
e 58 81
e 58 82
e 58 85
e 58 86
e 58 90
e 58 91
e 58 92
e 58 95
e 58 96
e 58 100
e 58 104
e 58 105
e 58 106
e 58 107
e 58 108
e 58 109
e 58 110
e 58 111
e 59 60
e 59 61
e 59 62
e 59 65
e 59 67
e 59 68
e 59 69
e 59 70
e 59 72
e 59 73
e 59 75
e 59 76
e 59 78
e 59 80
e 59 83
e 59 85
e 59 86
e 59 87
e 59 88
e 59 89
e 59 90
e 59 91
e 59 94
e 59 96
e 59 97
e 59 99
e 59 100
e 59 101
e 59 105
e 59 107
e 59 108
e 59 109
e 59 110
e 59 111
e 59 112
e 59 113
e 60 61
e 60 64
e 60 65
e 60 66
e 60 67
e 60 68
e 60 70
e 60 71
e 60 72
e 60 73
e 60 74
e 60 76
e 60 79
e 60 80
e 60 82
e 60 83
e 60 86
e 60 87
e 60 89
e 60 90
e 60 96
e 60 98
e 60 99
e 60 100
e 60 101
e 60 102
e 60 104
e 60 105
e 60 107
e 60 110
e 60 112
e 60 113
e 61 62
e 61 65
e 61 68
e 61 69
e 61 73
e 61 75
e 61 77
e 61 78
e 61 80
e 61 81
e 61 86
e 61 88
e 61 89
e 61 90
e 61 92
e 61 95
e 61 98
e 61 100
e 61 103
e 61 106
e 61 107
e 61 108
e 61 110
e 61 112
e 61 113
e 62 64
e 62 65
e 62 66
e 62 67
e 62 68
e 62 69
e 62 70
e 62 71
e 62 78
e 62 79
e 62 83
e 62 84
e 62 87
e 62 88
e 62 90
e 62 91
e 62 93
e 62 94
e 62 95
e 62 96
e 62 97
e 62 98
e 62 99
e 62 100
e 62 101
e 62 102
e 62 105
e 62 106
e 62 109
e 62 110
e 62 111
e 62 112
e 63 67
e 63 69
e 63 70
e 63 72
e 63 73
e 63 78
e 63 81
e 63 82
e 63 84
e 63 85
e 63 86
e 63 88
e 63 89
e 63 94
e 63 95
e 63 102
e 63 104
e 63 110
e 63 111
e 63 112
e 63 113
e 64 65
e 64 66
e 64 67
e 64 69
e 64 70
e 64 71
e 64 72
e 64 74
e 64 77
e 64 78
e 64 79
e 64 80
e 64 81
e 64 82
e 64 84
e 64 90
e 64 91
e 64 92
e 64 93
e 64 94
e 64 95
e 64 96
e 64 97
e 64 98
e 64 100
e 64 102
e 64 107
e 64 108
e 64 110
e 64 111
e 64 113
e 65 66
e 65 69
e 65 70
e 65 72
e 65 73
e 65 74
e 65 76
e 65 78
e 65 79
e 65 81
e 65 82
e 65 83
e 65 85
e 65 88
e 65 90
e 65 95
e 65 97
e 65 102
e 65 105
e 65 108
e 65 109
e 65 110
e 65 113
e 66 67
e 66 69
e 66 71
e 66 72
e 66 73
e 66 74
e 66 75
e 66 76
e 66 78
e 66 79
e 66 80
e 66 81
e 66 82
e 66 83
e 66 86
e 66 87
e 66 88
e 66 90
e 66 91
e 66 93
e 66 95
e 66 96
e 66 98
e 66 99
e 66 101
e 66 102
e 66 103
e 66 105
e 66 107
e 66 108
e 66 111
e 67 68
e 67 71
e 67 72
e 67 73
e 67 74
e 67 75
e 67 80
e 67 83
e 67 86
e 67 88
e 67 89
e 67 91
e 67 93
e 67 94
e 67 95
e 67 97
e 67 98
e 67 100
e 67 102
e 67 103
e 67 105
e 67 106
e 67 107
e 67 108
e 67 109
e 67 111
e 67 113
e 68 69
e 68 71
e 68 72
e 68 73
e 68 75
e 68 77
e 68 78
e 68 83
e 68 84
e 68 85
e 68 86
e 68 87
e 68 88
e 68 89
e 68 91
e 68 93
e 68 95
e 68 96
e 68 99
e 68 104
e 68 105
e 68 106
e 68 108
e 68 109
e 68 110
e 68 111
e 68 112
e 69 71
e 69 73
e 69 74
e 69 75
e 69 76
e 69 82
e 69 83
e 69 84
e 69 85
e 69 86
e 69 88
e 69 89
e 69 90
e 69 91
e 69 94
e 69 95
e 69 96
e 69 99
e 69 105
e 69 106
e 69 107
e 69 108
e 69 109
e 69 110
e 69 111
e 69 113
e 70 72
e 70 74
e 70 80
e 70 85
e 70 87
e 70 89
e 70 90
e 70 96
e 70 98
e 70 99
e 70 100
e 70 101
e 70 102
e 70 103
e 70 105
e 70 106
e 70 107
e 70 110
e 70 112
e 70 113
e 71 72
e 71 76
e 71 78
e 71 85
e 71 88
e 71 92
e 71 94
e 71 96
e 71 97
e 71 98
e 71 99
e 71 103
e 71 104
e 71 105
e 71 106
e 71 109
e 71 110
e 71 111
e 71 112
e 71 113
e 72 74
e 72 75
e 72 78
e 72 79
e 72 80
e 72 81
e 72 82
e 72 83
e 72 84
e 72 85
e 72 87
e 72 88
e 72 89
e 72 90
e 72 93
e 72 95
e 72 97
e 72 98
e 72 99
e 72 100
e 72 104
e 72 106
e 72 108
e 72 109
e 72 111
e 72 112
e 73 74
e 73 77
e 73 78
e 73 81
e 73 82
e 73 83
e 73 84
e 73 85
e 73 86
e 73 87
e 73 89
e 73 90
e 73 95
e 73 101
e 73 103
e 73 106
e 73 107
e 73 108
e 73 110
e 74 76
e 74 78
e 74 79
e 74 80
e 74 81
e 74 84
e 74 86
e 74 87
e 74 89
e 74 90
e 74 92
e 74 96
e 74 98
e 74 99
e 74 102
e 74 103
e 74 105
e 74 109
e 74 110
e 74 111
e 74 113
e 75 76
e 75 77
e 75 78
e 75 80
e 75 83
e 75 84
e 75 86
e 75 88
e 75 89
e 75 92
e 75 93
e 75 94
e 75 95
e 75 96
e 75 97
e 75 99
e 75 100
e 75 101
e 75 102
e 75 106
e 75 107
e 75 109
e 75 112
e 75 113
e 76 77
e 76 78
e 76 79
e 76 80
e 76 81
e 76 84
e 76 86
e 76 87
e 76 92
e 76 94
e 76 95
e 76 96
e 76 102
e 76 103
e 76 105
e 76 106
e 76 107
e 76 108
e 76 110
e 76 112
e 76 113
e 77 78
e 77 79
e 77 80
e 77 81
e 77 82
e 77 83
e 77 84
e 77 88
e 77 89
e 77 91
e 77 92
e 77 93
e 77 94
e 77 96
e 77 97
e 77 98
e 77 99
e 77 100
e 77 101
e 77 102
e 77 103
e 77 104
e 77 105
e 77 106
e 77 107
e 77 109
e 77 110
e 77 111
e 77 112
e 78 81
e 78 85
e 78 86
e 78 89
e 78 92
e 78 93
e 78 94
e 78 95
e 78 99
e 78 100
e 78 102
e 78 104
e 78 108
e 78 109
e 78 110
e 78 111
e 78 112
e 78 113
e 79 80
e 79 81
e 79 82
e 79 83
e 79 87
e 79 88
e 79 93
e 79 94
e 79 96
e 79 97
e 79 101
e 79 102
e 79 103
e 79 105
e 79 108
e 79 109
e 79 110
e 79 111
e 79 113
e 80 81
e 80 83
e 80 84
e 80 86
e 80 88
e 80 89
e 80 90
e 80 91
e 80 92
e 80 94
e 80 95
e 80 97
e 80 98
e 80 99
e 80 101
e 80 102
e 80 103
e 80 107
e 80 110
e 81 82
e 81 83
e 81 85
e 81 86
e 81 87
e 81 88
e 81 89
e 81 92
e 81 94
e 81 95
e 81 96
e 81 97
e 81 98
e 81 99
e 81 100
e 81 103
e 81 104
e 81 105
e 81 112
e 82 83
e 82 84
e 82 86
e 82 90
e 82 91
e 82 92
e 82 93
e 82 96
e 82 97
e 82 100
e 82 101
e 82 102
e 82 103
e 82 104
e 82 107
e 82 108
e 82 110
e 82 112
e 83 84
e 83 86
e 83 87
e 83 88
e 83 89
e 83 90
e 83 91
e 83 92
e 83 94
e 83 95
e 83 96
e 83 97
e 83 98
e 83 99
e 83 102
e 83 103
e 83 104
e 83 107
e 83 108
e 83 109
e 83 110
e 83 111
e 84 87
e 84 88
e 84 89
e 84 93
e 84 95
e 84 96
e 84 97
e 84 100
e 84 101
e 84 102
e 84 103
e 84 105
e 84 106
e 84 109
e 84 112
e 84 113
e 85 88
e 85 89
e 85 90
e 85 92
e 85 93
e 85 94
e 85 95
e 85 97
e 85 98
e 85 99
e 85 101
e 85 104
e 85 106
e 85 107
e 85 110
e 86 87
e 86 89
e 86 92
e 86 93
e 86 95
e 86 96
e 86 97
e 86 98
e 86 99
e 86 103
e 86 105
e 86 106
e 86 107
e 86 108
e 86 111
e 86 113
e 87 89
e 87 90
e 87 91
e 87 94
e 87 95
e 87 96
e 87 97
e 87 98
e 87 101
e 87 102
e 87 103
e 87 104
e 87 105
e 87 106
e 87 107
e 87 108
e 87 110
e 87 111
e 87 112
e 88 90
e 88 92
e 88 93
e 88 94
e 88 95
e 88 96
e 88 97
e 88 98
e 88 99
e 88 101
e 88 102
e 88 104
e 88 107
e 88 108
e 88 110
e 88 111
e 88 112
e 88 113
e 89 90
e 89 91
e 89 92
e 89 93
e 89 96
e 89 98
e 89 99
e 89 100
e 89 101
e 89 103
e 89 104
e 89 106
e 89 107
e 89 109
e 89 111
e 89 112
e 89 113
e 90 91
e 90 93
e 90 95
e 90 96
e 90 97
e 90 98
e 90 100
e 90 103
e 90 104
e 90 105
e 90 106
e 90 109
e 90 112
e 91 92
e 91 93
e 91 95
e 91 96
e 91 99
e 91 100
e 91 101
e 91 102
e 91 103
e 91 105
e 91 106
e 91 107
e 91 108
e 91 111
e 91 113
e 92 93
e 92 98
e 92 103
e 92 104
e 92 107
e 92 108
e 92 109
e 93 94
e 93 95
e 93 96
e 93 97
e 93 98
e 93 99
e 93 100
e 93 102
e 93 104
e 93 107
e 93 109
e 93 110
e 93 111
e 93 112
e 94 95
e 94 97
e 94 101
e 94 103
e 94 104
e 94 105
e 94 108
e 94 110
e 94 111
e 94 112
e 95 98
e 95 99
e 95 100
e 95 101
e 95 102
e 95 103
e 95 104
e 95 110
e 95 112
e 95 113
e 96 97
e 96 100
e 96 101
e 96 103
e 96 108
e 96 110
e 96 111
e 97 98
e 97 102
e 97 104
e 97 106
e 97 108
e 97 109
e 97 111
e 97 113
e 98 100
e 98 101
e 98 103
e 98 106
e 98 108
e 98 110
e 98 111
e 98 113
e 99 100
e 99 102
e 99 104
e 99 105
e 99 106
e 99 107
e 99 109
e 99 110
e 99 111
e 99 112
e 100 102
e 100 103
e 100 105
e 100 107
e 100 108
e 100 110
e 100 111
e 100 112
e 100 113
e 101 103
e 101 105
e 101 106
e 101 107
e 101 109
e 101 110
e 102 104
e 102 105
e 102 107
e 102 111
e 102 113
e 103 104
e 103 105
e 103 108
e 103 113
e 104 107
e 104 108
e 104 109
e 104 112
e 105 106
e 105 107
e 105 108
e 105 110
e 105 113
e 106 107
e 106 108
e 106 109
e 106 110
e 106 111
e 107 108
e 107 109
e 107 110
e 107 111
e 107 112
e 108 111
e 108 112
e 108 113
e 110 111
e 111 112
